<?xml version = "1.0" encoding="UTF-8" standalone="yes"?>
<CPLEXSolution version="1.2">
 <header
   problemName="projekt"
   objectiveValue="121719.17267051028"
   solutionTypeValue="1"
   solutionTypeString="basic"
   solutionStatusValue="1"
   solutionStatusString="optimal"
   solutionMethodString="dual"
   primalFeasible="1"
   dualFeasible="1"
   simplexIterations="57"
   writeLevel="1"/>
 <quality
   epRHS="9.9999999999999995e-07"
   epOpt="9.9999999999999995e-07"
   maxPrimalInfeas="0"
   maxDualInfeas="0"
   maxPrimalResidual="4.5474735088646412e-12"
   maxDualResidual="5.6843418860808015e-14"
   maxX="26825.770363428575"
   maxPi="529.7873885964932"
   maxSlack="42.460792032000029"
   maxRedCost="397.09999999999997"
   kappa="372.7347814546622"/>
 <linearConstraints>
  <constraint index="0" status="LL" slack="0" dual="45.214017244680036"/>
  <constraint index="1" status="LL" slack="0" dual="136.90000000000001"/>
  <constraint index="2" status="LL" slack="0" dual="106.09999999999999"/>
  <constraint index="3" status="LL" slack="0" dual="129.87863289085874"/>
  <constraint index="4" status="LL" slack="0" dual="136.89999999999998"/>
  <constraint index="5" status="LL" slack="0" dual="245.28349332138947"/>
  <constraint index="6" status="LL" slack="0" dual="494.46262382838074"/>
  <constraint index="7" status="LL" slack="0" dual="494.46262382838074"/>
  <constraint index="8" status="LL" slack="0" dual="494.46262382838074"/>
  <constraint index="9" status="LL" slack="0" dual="494.46262382838074"/>
  <constraint index="10" status="LL" slack="0" dual="494.46262382838074"/>
  <constraint index="11" status="LL" slack="0" dual="494.46262382838074"/>
  <constraint index="12" status="LL" slack="0" dual="494.46262382838074"/>
  <constraint index="13" status="LL" slack="0" dual="478.55647902838064"/>
  <constraint index="14" status="LL" slack="0" dual="356.12599999999998"/>
  <constraint index="15" status="LL" slack="0" dual="254.5"/>
  <constraint index="16" status="LL" slack="0" dual="120"/>
  <constraint index="17" status="LL" slack="0" dual="148.77193252631579"/>
  <constraint index="18" status="LL" slack="0" dual="364.85982023304155"/>
  <constraint index="19" status="LL" slack="0" dual="364.85982023304155"/>
  <constraint index="20" status="LL" slack="0" dual="364.85982023304155"/>
  <constraint index="21" status="LL" slack="0" dual="364.85982023304155"/>
  <constraint index="22" status="LL" slack="0" dual="364.85982023304155"/>
  <constraint index="23" status="LL" slack="0" dual="364.85982023304155"/>
  <constraint index="24" status="LL" slack="0" dual="364.85982023304155"/>
  <constraint index="25" status="LL" slack="0" dual="364.85982023304155"/>
  <constraint index="26" status="LL" slack="0" dual="348.62906023304151"/>
  <constraint index="27" status="LL" slack="0" dual="223.69999999999999"/>
  <constraint index="28" status="LL" slack="0" dual="120"/>
  <constraint index="29" status="LL" slack="0" dual="28.554488809662253"/>
  <constraint index="30" status="LL" slack="0" dual="264.04063289085872"/>
  <constraint index="31" status="LL" slack="0" dual="264.04063289085872"/>
  <constraint index="32" status="LL" slack="0" dual="264.04063289085872"/>
  <constraint index="33" status="LL" slack="0" dual="264.04063289085872"/>
  <constraint index="34" status="LL" slack="0" dual="264.04063289085872"/>
  <constraint index="35" status="LL" slack="0" dual="264.04063289085872"/>
  <constraint index="36" status="LL" slack="0" dual="264.04063289085872"/>
  <constraint index="37" status="LL" slack="0" dual="264.04063289085872"/>
  <constraint index="38" status="LL" slack="0" dual="264.04063289085872"/>
  <constraint index="39" status="LL" slack="0" dual="247.47863289085873"/>
  <constraint index="40" status="LL" slack="0" dual="120"/>
  <constraint index="41" status="LL" slack="0" dual="-101.33333590000001"/>
  <constraint index="42" status="LL" slack="0" dual="136.89999999999998"/>
  <constraint index="43" status="LL" slack="0" dual="136.89999999999998"/>
  <constraint index="44" status="LL" slack="0" dual="136.89999999999998"/>
  <constraint index="45" status="LL" slack="0" dual="136.89999999999998"/>
  <constraint index="46" status="LL" slack="0" dual="136.89999999999998"/>
  <constraint index="47" status="LL" slack="0" dual="136.89999999999998"/>
  <constraint index="48" status="LL" slack="0" dual="136.89999999999998"/>
  <constraint index="49" status="LL" slack="0" dual="136.89999999999998"/>
  <constraint index="50" status="LL" slack="0" dual="136.89999999999998"/>
  <constraint index="51" status="LL" slack="0" dual="136.89999999999998"/>
  <constraint index="52" status="LL" slack="0" dual="120"/>
  <constraint index="53" status="LL" slack="0" dual="40"/>
  <constraint index="54" status="LL" slack="0" dual="40"/>
  <constraint index="55" status="LL" slack="0" dual="40"/>
  <constraint index="56" status="LL" slack="0" dual="40"/>
  <constraint index="57" status="LL" slack="0" dual="40"/>
  <constraint index="58" status="LL" slack="0" dual="276.72017398164172"/>
  <constraint index="59" status="LL" slack="0" dual="529.7873885964932"/>
  <constraint index="60" status="LL" slack="0" dual="529.7873885964932"/>
  <constraint index="61" status="LL" slack="0" dual="529.7873885964932"/>
  <constraint index="62" status="LL" slack="0" dual="529.7873885964932"/>
  <constraint index="63" status="LL" slack="0" dual="529.7873885964932"/>
  <constraint index="64" status="LL" slack="0" dual="529.7873885964932"/>
  <constraint index="65" status="LL" slack="0" dual="514.19936669249307"/>
  <constraint index="66" status="LL" slack="0" dual="394.21749724467998"/>
  <constraint index="67" status="LL" slack="0" dual="294.62401724468003"/>
  <constraint index="68" status="LL" slack="0" dual="162.81401724468003"/>
  <constraint index="69" status="LL" slack="0" dual="120"/>
  <constraint index="70" status="LL" slack="0" dual="91.685982755319969"/>
  <constraint index="71" status="BS" slack="1.5885734388602799" dual="0"/>
  <constraint index="72" status="BS" slack="14.56605476691729" dual="0"/>
  <constraint index="73" status="BS" slack="26.428571428571416" dual="0"/>
  <constraint index="74" status="BS" slack="37.539207967999971" dual="0"/>
  <constraint index="75" status="LL" slack="0" dual="90"/>
  <constraint index="76" status="LL" slack="0" dual="90"/>
  <constraint index="77" status="LL" slack="0" dual="90"/>
  <constraint index="78" status="LL" slack="0" dual="90"/>
  <constraint index="79" status="LL" slack="0" dual="90"/>
  <constraint index="80" status="LL" slack="0" dual="58"/>
  <constraint index="81" status="LL" slack="0" dual="58"/>
  <constraint index="82" status="LL" slack="0" dual="58"/>
  <constraint index="83" status="LL" slack="0" dual="58"/>
  <constraint index="84" status="LL" slack="0" dual="58"/>
  <constraint index="85" status="LL" slack="0" dual="77"/>
  <constraint index="86" status="LL" slack="0" dual="77"/>
  <constraint index="87" status="LL" slack="0" dual="61.599999999999994"/>
  <constraint index="88" status="LL" slack="0" dual="73.489316445429367"/>
  <constraint index="89" status="LL" slack="0" dual="77"/>
  <constraint index="90" status="BS" slack="1.4286668174000088" dual="0"/>
  <constraint index="91" status="BS" slack="2.1316106447330512" dual="0"/>
  <constraint index="92" status="LL" slack="0" dual="110.00000000000003"/>
  <constraint index="93" status="LL" slack="0" dual="25.076311104075955"/>
  <constraint index="94" status="BS" slack="3.1109782310399972" dual="0"/>
  <constraint index="95" status="BS" slack="42.460792032000029" dual="-0"/>
  <constraint index="96" status="LL" slack="0" dual="1"/>
  <constraint index="97" status="LL" slack="0" dual="1"/>
  <constraint index="98" status="LL" slack="0" dual="1"/>
  <constraint index="99" status="LL" slack="0" dual="1"/>
  <constraint index="100" status="LL" slack="0" dual="1"/>
 </linearConstraints>
 <variables>
  <variable index="0" status="BS" value="21906.063250429994" reducedCost="0"/>
  <variable index="1" status="BS" value="21888.696594031564" reducedCost="0"/>
  <variable index="2" status="BS" value="25816.055077279343" reducedCost="0"/>
  <variable index="3" status="BS" value="26825.770363428575" reducedCost="0"/>
  <variable index="4" status="BS" value="25282.587385340801" reducedCost="0"/>
  <variable index="5" status="LL" value="0" reducedCost="-305.41401724468005"/>
  <variable index="6" status="LL" value="0" reducedCost="-397.09999999999991"/>
  <variable index="7" status="LL" value="0" reducedCost="-397.09999999999997"/>
  <variable index="8" status="LL" value="0" reducedCost="-397.09999999999997"/>
  <variable index="9" status="LL" value="0" reducedCost="-397.09999999999997"/>
  <variable index="10" status="BS" value="97.699999999999989" reducedCost="0"/>
  <variable index="11" status="BS" value="9.5" reducedCost="0"/>
  <variable index="12" status="BS" value="9.8000000000000007" reducedCost="0"/>
  <variable index="13" status="BS" value="9.8000000000000007" reducedCost="0"/>
  <variable index="14" status="BS" value="9.8000000000000007" reducedCost="0"/>
  <variable index="15" status="BS" value="9.8000000000000007" reducedCost="0"/>
  <variable index="16" status="BS" value="9.8000000000000007" reducedCost="0"/>
  <variable index="17" status="BS" value="9.8000000000000007" reducedCost="0"/>
  <variable index="18" status="BS" value="9.8000000000000007" reducedCost="0"/>
  <variable index="19" status="BS" value="9.8000000000000007" reducedCost="0"/>
  <variable index="20" status="BS" value="9.8000000000000007" reducedCost="0"/>
  <variable index="21" status="BS" value="95.167000000000016" reducedCost="0"/>
  <variable index="22" status="BS" value="9.0250000000000004" reducedCost="0"/>
  <variable index="23" status="BS" value="9.3100000000000005" reducedCost="0"/>
  <variable index="24" status="BS" value="9.604000000000001" reducedCost="0"/>
  <variable index="25" status="BS" value="9.604000000000001" reducedCost="0"/>
  <variable index="26" status="BS" value="9.604000000000001" reducedCost="0"/>
  <variable index="27" status="BS" value="9.604000000000001" reducedCost="0"/>
  <variable index="28" status="BS" value="9.604000000000001" reducedCost="0"/>
  <variable index="29" status="BS" value="9.604000000000001" reducedCost="0"/>
  <variable index="30" status="BS" value="9.604000000000001" reducedCost="0"/>
  <variable index="31" status="BS" value="9.604000000000001" reducedCost="0"/>
  <variable index="32" status="BS" value="104.42874" reducedCost="0"/>
  <variable index="33" status="BS" value="20.577000000000009" reducedCost="0"/>
  <variable index="34" status="BS" value="8.8445" reducedCost="0"/>
  <variable index="35" status="BS" value="9.123800000000001" reducedCost="0"/>
  <variable index="36" status="BS" value="9.4119200000000003" reducedCost="0"/>
  <variable index="37" status="BS" value="9.4119200000000003" reducedCost="0"/>
  <variable index="38" status="BS" value="9.4119200000000003" reducedCost="0"/>
  <variable index="39" status="BS" value="9.4119200000000003" reducedCost="0"/>
  <variable index="40" status="BS" value="9.4119200000000003" reducedCost="0"/>
  <variable index="41" status="BS" value="9.4119200000000003" reducedCost="0"/>
  <variable index="42" status="BS" value="9.4119200000000003" reducedCost="0"/>
  <variable index="43" status="BS" value="103.57142857142858" reducedCost="0"/>
  <variable index="44" status="BS" value="10.454944971428574" reducedCost="0"/>
  <variable index="45" status="BS" value="20.165460000000007" reducedCost="0"/>
  <variable index="46" status="BS" value="8.6676099999999998" reducedCost="0"/>
  <variable index="47" status="BS" value="8.9413240000000016" reducedCost="0"/>
  <variable index="48" status="BS" value="9.2236816000000008" reducedCost="0"/>
  <variable index="49" status="BS" value="9.2236816000000008" reducedCost="0"/>
  <variable index="50" status="BS" value="9.2236816000000008" reducedCost="0"/>
  <variable index="51" status="BS" value="9.2236816000000008" reducedCost="0"/>
  <variable index="52" status="BS" value="9.2236816000000008" reducedCost="0"/>
  <variable index="53" status="BS" value="9.2236816000000008" reducedCost="0"/>
  <variable index="54" status="BS" value="92.460792032000029" reducedCost="0"/>
  <variable index="55" status="BS" value="0" reducedCost="0"/>
  <variable index="56" status="BS" value="10.245846072000003" reducedCost="0"/>
  <variable index="57" status="BS" value="19.762150800000008" reducedCost="0"/>
  <variable index="58" status="BS" value="8.4942577999999997" reducedCost="0"/>
  <variable index="59" status="BS" value="8.7624975200000019" reducedCost="0"/>
  <variable index="60" status="BS" value="9.0392079680000013" reducedCost="0"/>
  <variable index="61" status="BS" value="9.0392079680000013" reducedCost="0"/>
  <variable index="62" status="BS" value="9.0392079680000013" reducedCost="0"/>
  <variable index="63" status="BS" value="9.0392079680000013" reducedCost="0"/>
  <variable index="64" status="BS" value="9.0392079680000013" reducedCost="0"/>
  <variable index="65" status="BS" value="21.660000000000011" reducedCost="0"/>
  <variable index="66" status="BS" value="22.800000000000011" reducedCost="0"/>
  <variable index="67" status="BS" value="9.5" reducedCost="0"/>
  <variable index="68" status="BS" value="9.604000000000001" reducedCost="0"/>
  <variable index="69" status="BS" value="11.005205233082709" reducedCost="0"/>
  <variable index="70" status="BS" value="11.584426561139693" reducedCost="0"/>
  <variable index="71" status="BS" value="9.4119200000000003" reducedCost="0"/>
  <variable index="72" status="BS" value="0" reducedCost="0"/>
  <variable index="73" status="LL" value="0" reducedCost="-114.93990435082085"/>
  <variable index="74" status="BS" value="9.2236816000000008" reducedCost="0"/>
  <variable index="75" status="BS" value="0" reducedCost="0"/>
  <variable index="76" status="LL" value="0" reducedCost="-237.76718029533774"/>
  <variable index="77" status="BS" value="9.0392079680000013" reducedCost="0"/>
  <variable index="78" status="BS" value="30.934999999999988" reducedCost="0"/>
  <variable index="79" status="BS" value="40.757423438860322" reducedCost="0"/>
  <variable index="80" status="BS" value="57.435807000000004" reducedCost="0"/>
  <variable index="81" status="BS" value="56.964285714285722" reducedCost="0"/>
  <variable index="82" status="LL" value="0" reducedCost="-141.33333590000001"/>
  <variable index="83" status="BS" value="50.85343561760002" reducedCost="0"/>
  <variable index="84" status="BS" value="9.8000000000000007" reducedCost="0"/>
  <variable index="85" status="UL" value="22" reducedCost="6.3636363636363633"/>
  <variable index="86" status="LL" value="0" reducedCost="-12.222222222222225"/>
  <variable index="87" status="LL" value="0" reducedCost="-25"/>
  <variable index="88" status="LL" value="0" reducedCost="-51.538461538461526"/>
  <variable index="89" status="BS" value="36.61999999999999" reducedCost="0"/>
  <variable index="90" status="LL" value="0" reducedCost="-15"/>
  <variable index="91" status="UL" value="22" reducedCost="6.3636363636363633"/>
  <variable index="92" status="LL" value="0" reducedCost="-12.222222222222225"/>
  <variable index="93" status="LL" value="0" reducedCost="-25"/>
  <variable index="94" status="LL" value="0" reducedCost="-51.538461538461526"/>
  <variable index="95" status="BS" value="35.100200000000008" reducedCost="0"/>
  <variable index="96" status="LL" value="0" reducedCost="-15"/>
  <variable index="97" status="UL" value="22" reducedCost="16.36363636363637"/>
  <variable index="98" status="BS" value="2.8207366517663379" reducedCost="0"/>
  <variable index="99" status="LL" value="0" reducedCost="-11.250000000000002"/>
  <variable index="100" status="LL" value="0" reducedCost="-34.615384615384585"/>
  <variable index="101" status="BS" value="37.83650734823366" reducedCost="0"/>
  <variable index="102" status="LL" value="0" reducedCost="-15"/>
  <variable index="103" status="UL" value="22" reducedCost="8.6433010094614531"/>
  <variable index="104" status="LL" value="0" reducedCost="-9.435965432880451"/>
  <variable index="105" status="LL" value="0" reducedCost="-21.865461111990509"/>
  <variable index="106" status="LL" value="0" reducedCost="-47.680567522449834"/>
  <variable index="107" status="BS" value="40.142857142857146" reducedCost="0"/>
  <variable index="108" status="LL" value="0" reducedCost="-15"/>
  <variable index="109" status="UL" value="22" reducedCost="6.3636363636363633"/>
  <variable index="110" status="LL" value="0" reducedCost="-12.222222222222225"/>
  <variable index="111" status="LL" value="0" reducedCost="-25"/>
  <variable index="112" status="LL" value="0" reducedCost="-51.538461538461526"/>
  <variable index="113" status="BS" value="33.476475219200019" reducedCost="0"/>
  <variable index="114" status="LL" value="0" reducedCost="-15"/>
  <variable index="115" status="BS" value="91.149998385000018" reducedCost="0"/>
  <variable index="116" status="LL" value="0" reducedCost="-12"/>
  <variable index="117" status="BS" value="22.759998385000031" reducedCost="0"/>
  <variable index="118" status="BS" value="94.005071776638971" reducedCost="0"/>
  <variable index="119" status="LL" value="0" reducedCost="-12"/>
  <variable index="120" status="BS" value="27.38817177663897" reducedCost="0"/>
  <variable index="121" status="BS" value="97.650456463713127" reducedCost="0"/>
  <variable index="122" status="LL" value="0" reducedCost="-12"/>
  <variable index="123" status="BS" value="24.550338463713132" reducedCost="0"/>
  <variable index="124" status="BS" value="114.64285714285711" reducedCost="0"/>
  <variable index="125" status="LL" value="0" reducedCost="-12"/>
  <variable index="126" status="BS" value="42.14285714285711" reducedCost="0"/>
  <variable index="127" status="BS" value="131.30881195199996" reducedCost="0"/>
  <variable index="128" status="LL" value="0" reducedCost="-12"/>
  <variable index="129" status="BS" value="66.586257529599933" reducedCost="0"/>
  <variable index="130" status="LL" value="0" reducedCost="-120"/>
  <variable index="131" status="LL" value="0" reducedCost="-120"/>
  <variable index="132" status="LL" value="0" reducedCost="-9.9999999999999716"/>
  <variable index="133" status="LL" value="0" reducedCost="-94.923688895924045"/>
  <variable index="134" status="LL" value="0" reducedCost="-120"/>
 </variables>
 <objectiveValues>
  <objective index="0" name="obj1" value="121719.17267051028"/>
 </objectiveValues>
</CPLEXSolution>
